c Result of efficient AIG-to-CNF conversion using package CNF
p cnf 37 95
1 -32 -33 0
-1 32 0
-1 33 0
2 -35 -1 0
-2 35 0
-2 1 0
3 -32 35 0
-3 32 0
-3 -35 0
4 2 3 0
-4 -2 0
-4 -3 0
5 34 -1 0
-5 -34 0
-5 1 0
6 -32 -4 0
-6 32 0
-6 4 0
7 32 4 0
-7 -32 0
-7 -4 0
8 6 7 0
-8 -6 0
-8 -7 0
9 -5 6 0
-9 5 0
-9 -6 0
10 5 -6 0
-10 -5 0
-10 6 0
11 9 10 0
-11 -9 0
-11 -10 0
12 -1 -11 0
-12 1 0
-12 11 0
13 1 11 0
-13 -1 0
-13 -11 0
14 12 13 0
-14 -12 0
-14 -13 0
15 -1 5 0
-15 1 0
-15 -5 0
16 1 -5 0
-16 -1 0
-16 5 0
17 -6 16 0
-17 6 0
-17 -16 0
18 6 -15 0
-18 -6 0
-18 15 0
19 17 18 0
-19 -17 0
-19 -18 0
20 8 -14 0
-20 -8 0
-20 14 0
21 -8 14 0
-21 8 0
-21 -14 0
22 20 21 0
-22 -20 0
-22 -21 0
23 8 -19 0
-23 -8 0
-23 19 0
24 8 19 0
-24 -8 0
-24 -19 0
25 23 24 0
-25 -23 0
-25 -24 0
26 14 -19 0
-26 -14 0
-26 19 0
27 19 22 0
-27 -19 0
-27 -22 0
28 26 27 0
-28 -26 0
-28 -27 0
29 -25 -28 0
-29 25 0
-29 28 0
30 -34 -35 0
-30 34 0
-30 35 0
31 -29 -30 0
-31 29 0
-31 30 0
36 0
31 0

